Selected objective sense:  MINIMIZE
Selected objective  name:  OBJ
Selected RHS        name:  RHS1
Selected bound      name:  BND1
CPXPARAM_Preprocessing_Presolve                  0
CPXPARAM_LPMethod                                4
CPXPARAM_Threads                                 1
CPXPARAM_SolutionType                            2
CPXPARAM_TimeLimit                               3600
Tried aggregator 0 times.
Reduced presolve eliminated 100 rows and 100 columns.
Reduced LP has 4020 rows, 19428 columns, and 438340 nonzeros.
Presolve time = 0.10 sec. (90.60 ticks)
Parallel mode: none, using 1 thread for barrier
Number of nonzeros in lower triangle of A*A' = 91204
Using Approximate Minimum Degree ordering
Total time for automatic ordering = 0.01 sec. (17.27 ticks)
Summary statistics for Cholesky factor:
  Rows in Factor            = 4020
  Integer space required    = 94396
  Total non-zeros in factor = 95477
  Total FP ops to factor    = 2303543
 Itn      Primal Obj        Dual Obj  Prim Inf Upper Inf  Dual Inf Inf Ratio
   0   1.7676258e+08  -2.6266159e+06  1.30e+08  0.00e+00  6.60e+05  1.00e+00
   1   1.7958113e+07  -6.9908197e+05  1.19e+07  2.11e-12  3.86e+05  7.60e-03
   2   9.2316282e+05  -3.3032111e+05  8.15e+05  2.96e-12  7.32e+02  4.93e-01
   3   2.6891485e+04  -1.6147004e+05  8.06e+04  1.27e-11  2.55e+02  8.46e-01
   4   6.8971561e+03  -3.3342203e+04  4.93e+03  2.90e-12  5.93e+01  1.05e+00
   5   5.9828209e+03   3.0284369e+03  8.48e+00  3.88e-12  4.46e+00  1.35e+01
   6   5.9265725e+03   4.9405968e+03  4.54e+00  3.31e-12  1.45e+00  2.40e+01
   7   5.8529781e+03   5.5351976e+03  1.08e+00  7.36e-12  4.80e-01  6.88e+01
   8   5.8330310e+03   5.7312551e+03  5.03e-01  3.86e-12  1.45e-01  2.17e+02
   9   5.8195626e+03   5.7735724e+03  2.79e-01  2.63e-12  5.89e-02  5.05e+02
  10   5.8120734e+03   5.7887160e+03  1.70e-01  9.55e-12  2.57e-02  1.07e+03
  11   5.8104982e+03   5.7934208e+03  1.47e-01  9.19e-12  1.55e-02  1.67e+03
  12   5.8076910e+03   5.7968739e+03  1.08e-01  3.94e-12  7.24e-03  3.03e+03
  13   5.8066932e+03   5.7989630e+03  9.40e-02  8.36e-12  2.29e-03  6.42e+03
  14   5.8061101e+03   5.7993079e+03  8.62e-02  3.34e-12  1.22e-03  8.30e+03
  15   5.8050865e+03   5.7994673e+03  7.22e-02  3.94e-12  8.21e-04  9.43e+03
  16   5.8046961e+03   5.7996440e+03  6.67e-02  1.29e-11  5.45e-04  1.10e+04
  17   5.8040111e+03   5.7996805e+03  5.69e-02  8.04e-12  4.95e-04  1.14e+04
  18   5.8030626e+03   5.7997469e+03  4.25e-02  3.60e-12  4.38e-04  1.23e+04
  19   5.8024125e+03   5.8000779e+03  3.25e-02  7.37e-12  1.81e-04  1.96e+04
  20   5.8019642e+03   5.8002732e+03  2.54e-02  4.10e-12  4.78e-05  3.29e+04
  21   5.8016059e+03   5.8003281e+03  1.97e-02  1.46e-11  2.09e-05  4.19e+04
  22   5.8014088e+03   5.8003581e+03  1.65e-02  1.82e-11  1.27e-05  5.01e+04
  23   5.8013758e+03   5.8003866e+03  1.59e-02  8.42e-12  6.78e-06  6.27e+04
  24   5.8009957e+03   5.8003980e+03  9.26e-03  2.82e-12  5.84e-06  7.03e+04
  25   5.8009517e+03   5.8004156e+03  8.50e-03  4.25e-12  4.04e-06  8.68e+04
  26   5.8009432e+03   5.8004470e+03  8.36e-03  5.56e-12  1.01e-06  1.45e+05
  27   5.8008709e+03   5.8004499e+03  7.13e-03  1.08e-11  4.74e-07  1.53e+05
  28   5.8008551e+03   5.8004518e+03  6.85e-03  9.00e-12  4.14e-07  1.58e+05
  29   5.8008442e+03   5.8004554e+03  6.66e-03  1.58e-11  2.59e-07  1.74e+05
  30   5.8008306e+03   5.8004566e+03  6.42e-03  1.54e-11  2.12e-07  1.80e+05
  31   5.8008090e+03   5.8004630e+03  6.04e-03  1.47e-11  1.24e-07  2.36e+05
  32   5.8007717e+03   5.8004638e+03  5.38e-03  2.42e-11  7.63e-08  2.30e+05
  33   5.8007374e+03   5.8004646e+03  4.78e-03  2.00e-11  4.66e-08  2.42e+05
  34   5.8007355e+03   5.8004684e+03  4.74e-03  1.27e-11  1.17e-08  2.86e+05
  35   5.8006683e+03   5.8004688e+03  3.54e-03  1.92e-11  7.03e-09  2.89e+05
  36   5.8005981e+03   5.8004739e+03  2.25e-03  2.21e-11  1.86e-09  3.91e+05
  37   5.8005707e+03   5.8004776e+03  1.72e-03  7.67e-12  9.30e-10  5.21e+05
  38   5.8005570e+03   5.8004799e+03  1.46e-03  4.78e-12  5.35e-10  6.78e+05
  39   5.8005469e+03   5.8004820e+03  1.25e-03  8.96e-12  3.32e-10  9.26e+05
  40   5.8005459e+03   5.8004824e+03  1.24e-03  4.79e-12  2.86e-10  9.96e+05
  41   5.8005368e+03   5.8004828e+03  1.05e-03  5.47e-12  2.54e-10  1.06e+06
  42   5.8005308e+03   5.8004831e+03  9.31e-04  9.09e-12  1.72e-10  1.15e+06
  43   5.8005264e+03   5.8004842e+03  8.41e-04  4.51e-12  1.03e-10  1.60e+06
  44   5.8005164e+03   5.8004846e+03  6.37e-04  1.10e-11  8.05e-11  1.78e+06
  45   5.8005128e+03   5.8004854e+03  5.62e-04  8.66e-12  1.23e-10  2.45e+06
  46   5.8005045e+03   5.8004861e+03  3.83e-04  1.32e-11  4.93e-11  3.54e+06
  47   5.8005044e+03   5.8004861e+03  3.82e-04  4.64e-12  6.70e-11  3.56e+06
  48   5.8005010e+03   5.8004862e+03  3.10e-04  3.79e-12  8.01e-11  3.81e+06
  49   5.8005004e+03   5.8004863e+03  2.96e-04  8.76e-12  1.17e-10  3.90e+06
  50   5.8004980e+03   5.8004864e+03  2.44e-04  8.94e-12  4.55e-11  4.42e+06
  51   5.8004970e+03   5.8004865e+03  2.22e-04  7.57e-12  6.70e-11  4.73e+06
  52   5.8004963e+03   5.8004866e+03  2.06e-04  5.06e-12  4.96e-11  5.20e+06
  53   5.8004927e+03   5.8004869e+03  1.26e-04  6.28e-12  4.58e-11  8.05e+06
  54   5.8004905e+03   5.8004872e+03  7.46e-05  3.73e-12  1.07e-10  1.35e+07
  55   5.8004903e+03   5.8004872e+03  7.08e-05  4.29e-12  1.10e-10  1.51e+07
  56   5.8004899e+03   5.8004873e+03  6.18e-05  5.37e-12  3.82e-11  1.85e+07
  57   5.8004895e+03   5.8004873e+03  5.01e-05  8.46e-12  5.65e-11  1.87e+07
  58   5.8004891e+03   5.8004874e+03  3.99e-05  1.06e-11  6.60e-11  2.79e+07
  59   5.8004887e+03   5.8004874e+03  3.04e-05  3.51e-12  4.32e-11  3.39e+07
  60   5.8004883e+03   5.8004874e+03  2.13e-05  4.07e-12  4.35e-11  4.65e+07
  61   5.8004882e+03   5.8004874e+03  1.78e-05  5.54e-12  6.32e-11  5.00e+07
  62   5.8004878e+03   5.8004875e+03  7.65e-06  2.69e-12  7.30e-11  6.24e+07
  63   5.8004878e+03   5.8004875e+03  6.93e-06  3.74e-12  7.09e-11  9.41e+07
  64   5.8004877e+03   5.8004875e+03  4.88e-06  1.14e-11  7.41e-11  1.24e+08
  65   5.8004876e+03   5.8004875e+03  4.37e-04  2.82e-12  3.33e-10  1.34e+08
Barrier time = 1.30 sec. (2694.29 ticks)

Total time on 1 threads = 1.30 sec. (2694.29 ticks)
Solve time: 1.296452361
Barrier iterations: 65
